results/res_prop_muc/res_Cimatti_mathsat_cores/QF_IDL/SortingNetwork8_safe_bgmc003.smt.smt2.res
unsat
( c12
  c13
  c14
  c2111
  c2121
  c2170
  c37
  c4339
  c4343
  c4366
  c4367
  c4376
  c4465 )
